10
55
0 1 16 5.5
0 2 16 17
0 3 16 5.5
0 4 16 8
0 5 12 6
0 6 10 5
0 7 14 17
0 8 15 10
0 9 14 10
1 2 6 3
1 3 16 10
1 4 14 10
1 5 16 17
1 6 14 10
1 7 16 10
1 8 5 2
1 9 6 3
2 3 16 17
2 4 14 17
2 5 14 17
2 6 16 8
2 7 15 8
2 8 4 2
2 9 5 2
3 4 4 2
3 5 15 17
3 6 14 5.5
3 7 12 12
3 8 16 8
3 9 16 5.5
4 5 14 5.5
4 6 15 10
4 7 8 4
4 8 16 17
4 9 16 17
5 6 14 7
5 7 14 17
5 8 14 17
5 9 15 10
6 7 15 5.5
6 8 16 10
6 9 16 10
7 8 14 10
7 9 16 10
8 9 10 6
